17	4
33	33	22	28	
0	0	0	0	0	3	2	3	4	
1	4	0	7	0	3	5	6	8	
6	4	3	2	0	3	7	12	16	
5	4	6	1	2	3	9	11	17	
6	9	3	4	10	3	7	9	15	
150	8	7	0	10	3	9	17	17	
150	6	8	3	7	3	10	17	17	
175	9	9	0	4	1	17	
25	7	7	9	4	3	12	17	17	
100	6	7	10	0	1	13	
25	0	7	7	2	2	14	17	
100	0	2	8	8	2	17	17	
3	2	8	9	10	1	17	
2	4	10	1	2	2	17	17	
7	6	0	2	0	2	17	17	
7	3	3	3	7	2	17	17	
0	0	0	0	0	0	
